Version identifier: 22.1.1.0 | 2022-11-28 | 9160aff4d
CPXPARAM_ClockType                               1
CPXPARAM_Read_DataCheck                          1
CPXPARAM_Threads                                 1
CPXPARAM_TimeLimit                               7200
CPXPARAM_MIP_Tolerances_AbsMIPGap                0
CPXPARAM_MIP_Tolerances_MIPGap                   0
CPXPARAM_MIP_Tolerances_Integrality              0
Tried aggregator 6 times.
MIP Presolve eliminated 12659 rows and 341 columns.
MIP Presolve modified 699 coefficients.
Aggregator did 208 substitutions.
Reduced MIP has 14275 rows, 5156 columns, and 48855 nonzeros.
Reduced MIP has 5156 binaries, 0 generals, 0 SOSs, and 0 indicators.
Presolve time = 0.13 sec. (99.47 ticks)
Probing fixed 1696 vars, tightened 0 bounds.
Probing time = 0.08 sec. (33.79 ticks)
Cover probing fixed 0 vars, tightened 120 bounds.
Tried aggregator 5 times.
MIP Presolve eliminated 6628 rows and 1804 columns.
MIP Presolve modified 278 coefficients.
Aggregator did 424 substitutions.
Reduced MIP has 7223 rows, 2928 columns, and 23799 nonzeros.
Reduced MIP has 2928 binaries, 0 generals, 0 SOSs, and 0 indicators.
Presolve time = 0.10 sec. (61.79 ticks)
Probing time = 0.01 sec. (6.08 ticks)
Tried aggregator 1 time.
Detecting symmetries...
MIP Presolve eliminated 1 rows and 1 columns.
Reduced MIP has 7222 rows, 2927 columns, and 23796 nonzeros.
Reduced MIP has 2927 binaries, 0 generals, 0 SOSs, and 0 indicators.
Presolve time = 0.03 sec. (21.30 ticks)
Probing time = 0.01 sec. (3.30 ticks)
Clique table members: 19987.
MIP emphasis: balance optimality and feasibility.
MIP search method: dynamic search.
Parallel mode: none, using 1 thread.
Root relaxation solution time = 0.04 sec. (33.89 ticks)

        Nodes                                         Cuts/
   Node  Left     Objective  IInf  Best Integer    Best Bound    ItCnt     Gap

      0     0      324.0000   597                    324.0000      990         
      0     0      324.0000   748                   Cuts: 208     1414         
      0     0      324.0000   600                   Cuts: 177     1704         
      0     0      324.0000   677                   Cuts: 508     2282         
      0     2      324.0000   371                    324.0000     2282         
Elapsed time = 2.72 sec. (2045.42 ticks, tree = 0.01 MB, solutions = 0)
     40    39      324.0000   373                    324.0000     4097         
     95    79      324.0000   296                    324.0000     6114         
    138   100      324.0000   420                    324.0000     8247         
    159   112      323.9286   497                    324.0000    10257         
    182   126      324.0000   414                    324.0000    12691         
    214   155      324.0000   302                    324.0000    14430         
    276   198      322.9167   370                    324.0000    16808         
    329   232      323.9915   463                    324.0000    20191         
    355   252      324.0000   499                    324.0000    22085         
*   395   255      integral     0      306.0000      324.0000    26308    5.88%
    410   257      324.0000   508      306.0000      324.0000    30091    5.88%
Elapsed time = 8.61 sec. (6188.77 ticks, tree = 3.10 MB, solutions = 1)
    430   273      324.0000   512      306.0000      324.0000    35202    5.88%
    480   312      311.6000   560      306.0000      324.0000    39713    5.88%
    510   314      320.9643   391      306.0000      324.0000    46348    5.88%
    551   344      322.0000   364      306.0000      324.0000    50814    5.88%
    647   426      309.2381   274      306.0000      324.0000    57029    5.88%
*   700+  313                          318.0000      324.0000             1.89%
*   717   224      integral     0      322.0000      324.0000    61584    0.62%
    738   208      324.0000   696      322.0000      324.0000    67435    0.62%
    758   222      324.0000   572      322.0000      324.0000    76002    0.62%
*   780+    1                          324.0000      324.0000             0.00%

Clique cuts applied:  53
Implied bound cuts applied:  883
Zero-half cuts applied:  21
Lift and project cuts applied:  2

Root node processing (before b&c):
  Real time             =    2.69 sec. (2032.23 ticks)
Sequential b&c:
  Real time             =   21.97 sec. (14151.72 ticks)
                          ------------
Total (root+branch&cut) =   24.66 sec. (16183.95 ticks)
Solution is feasible.

---------------------
@@@ MIP_optimal
>>> Benchmark logistics.c.cnf k 2 OPT 324 TimeCost 27.755131244659424 TimeSolve 24.779536724090576 TimeRead 0.01889967918395996 TimeTrans 2.9566948413848877
